
Welcome to IBM(R) ILOG(R) CPLEX(R) Interactive Optimizer 22.1.1.0
  with Simplex, Mixed Integer & Barrier Optimizers
5725-A06 5725-A29 5724-Y48 5724-Y49 5724-Y54 5724-Y55 5655-Y21
Copyright IBM Corp. 1988, 2022.  All Rights Reserved.

Type 'help' for a list of available commands.
Type 'help' followed by a command name for more
information on commands.

CPLEX> New value for default parallel thread count: 1
CPLEX> New value for time limit in seconds: 20
CPLEX> New value for mixed integer optimality gap tolerance: 0
CPLEX> Problem 'results\sealed_closure_round\raw\moderate_seed3302_auto_oracle\interval_1_d1_1.lp' read.
Read time = 0.00 sec. (0.57 ticks)
CPLEX> Version identifier: 22.1.1.0 | 2022-11-27 | 9160aff4d
CPXPARAM_Threads                                 1
CPXPARAM_TimeLimit                               20
CPXPARAM_MIP_Tolerances_MIPGap                   0
Tried aggregator 2 times.
MIP Presolve eliminated 101 rows and 6 columns.
MIP Presolve modified 510 coefficients.
Aggregator did 63 substitutions.
Reduced MIP has 4871 rows, 2042 columns, and 23129 nonzeros.
Reduced MIP has 1467 binaries, 197 generals, 0 SOSs, and 0 indicators.
Presolve time = 0.02 sec. (18.14 ticks)
Probing fixed 0 vars, tightened 12 bounds.
Probing time = 0.02 sec. (47.62 ticks)
Tried aggregator 1 time.
Detecting symmetries...
MIP Presolve eliminated 12 rows and 12 columns.
MIP Presolve modified 24 coefficients.
Reduced MIP has 4859 rows, 2030 columns, and 22841 nonzeros.
Reduced MIP has 1461 binaries, 191 generals, 0 SOSs, and 0 indicators.
Presolve time = 0.02 sec. (18.21 ticks)
Probing time = 0.02 sec. (5.55 ticks)
Clique table members: 12324.
MIP emphasis: balance optimality and feasibility.
MIP search method: dynamic search.
Parallel mode: none, using 1 thread.
Root relaxation solution time = 0.06 sec. (186.82 ticks)

        Nodes                                         Cuts/
   Node  Left     Objective  IInf  Best Integer    Best Bound    ItCnt     Gap

      0     0        0.1423   194                      0.1423     1472
      0     0        0.1465   200                   Cuts: 122     1713
      0     0        0.1517   208                   Cuts: 245     1981
      0     0        0.1529   206                   Cuts: 150     2255
      0     0        0.1534   195                    Cuts: 96     2585
      0     0        0.1534   180                    Cuts: 80     2760
Detecting symmetries...
      0     0        0.1535   216                    Cuts: 55     3106
      0     0        0.1535   223                    Cuts: 84     3382
      0     0        0.1536   231                    Cuts: 60     3650
      0     0        0.1536   219                    Cuts: 25     3716
      0     0        0.1536   232                    Cuts: 64     3874
Detecting symmetries...
      0     2        0.1536   225                      0.1536     3874
Elapsed time = 1.06 sec. (2640.93 ticks, tree = 0.01 MB, solutions = 0)
      4     6        0.1552   195                      0.1542     5252
     20    22        0.1749   196                      0.1542     7967
     35    37        0.1588   145                      0.1542     9084
     60    62        0.1607   128                      0.1542     9866
     81    81    infeasible                            0.1542    11100
    104    98        0.1654    94                      0.1542    12418
    118   104        0.1547   225                      0.1542    13491
    132   118        0.1551   161                      0.1542    14696
    140   126        0.1552   163                      0.1542    15239
    235   209        0.1546   239                      0.1544    20238
Elapsed time = 2.30 sec. (6233.56 ticks, tree = 1.20 MB, solutions = 0)
    283   257        0.1620   132                      0.1544    23956
    360   316        0.1830   149                      0.1544    28226
    406   358        0.1554   176                      0.1544    32139
    493   421        0.1614   206                      0.1545    36638
    546   466        0.1656   166                      0.1545    41533
    616   512        0.1613   223                      0.1545    46956
    729   617        0.1783   127                      0.1545    51371
    826   694        0.1619   150                      0.1545    55462
    965   801        0.1581   183                      0.1545    59858
   1042   852    infeasible                            0.1545    64802
Elapsed time = 5.72 sec. (16015.13 ticks, tree = 16.57 MB, solutions = 0)
   1110   914        0.1607   155                      0.1545    68966
   1159   951        0.1605   165                      0.1545    72941
   1228  1003        0.1787   203                      0.1545    77524
   1309  1062        0.1545   229                      0.1545    82633
   1393  1137        0.1781   152                      0.1545    87656
   1500  1222        0.1554   151                      0.1545    92999
   1562  1282        0.1794    84                      0.1545    97483
   1654  1364        0.1917   138                      0.1545   102055
   1757  1449        0.1866   175                      0.1545   106622
   1825  1513        0.1901   158                      0.1545   110818
Elapsed time = 9.19 sec. (25660.71 ticks, tree = 27.70 MB, solutions = 0)
   1919  1581    infeasible                            0.1545   116265
   1983  1627        0.1868   153                      0.1545   120829

Performing restart 1

Repeating presolve.
Tried aggregator 1 time.
Reduced MIP has 4859 rows, 2030 columns, and 22841 nonzeros.
Reduced MIP has 1461 binaries, 191 generals, 0 SOSs, and 0 indicators.
Presolve time = 0.02 sec. (9.07 ticks)
Tried aggregator 1 time.
MIP Presolve modified 20 coefficients.
Reduced MIP has 4859 rows, 2030 columns, and 22841 nonzeros.
Reduced MIP has 1461 binaries, 191 generals, 0 SOSs, and 0 indicators.
Presolve time = 0.02 sec. (12.62 ticks)
Represolve time = 0.08 sec. (137.83 ticks)
   2072     0        0.1540   213                   Cuts: 313   131623
   2072     0        0.1545   301                   Cuts: 239   133311
   2072     0        0.1547   298                   Cuts: 326   134496
   2072     0        0.1548   316                   Cuts: 240   135105
   2072     0        0.1549   324                   Cuts: 364   135679
   2072     0        0.1549   342                   Cuts: 396   136278
   2072     0        0.1550   335                   Cuts: 461   136677
   2072     0        0.1550   343                   Cuts: 391   137127
   2072     0        0.1550   347                   Cuts: 321   137723
   2072     0        0.1551   363                   Cuts: 299   138265
   2072     0        0.1551   377                   Cuts: 292   138532
   2072     0        0.1551   369                   Cuts: 141   138801
   2072     0        0.1551   365                   Cuts: 124   139107
   2072     0        0.1551   360                   Cuts: 157   139327

GUB cover cuts applied:  16
Cover cuts applied:  22
Implied bound cuts applied:  68
Flow cuts applied:  34
Mixed integer rounding cuts applied:  247
Zero-half cuts applied:  31
Lift and project cuts applied:  14
Gomory fractional cuts applied:  4

Root node processing (before b&c):
  Real time             =    1.05 sec. (2601.43 ticks)
Sequential b&c:
  Real time             =   18.97 sec. (49439.31 ticks)
                          ------------
Total (root+branch&cut) =   20.02 sec. (52040.73 ticks)


MIP - Time limit exceeded, no integer solution.
Current MIP best bound =  1.5506037384e-01 (gap is infinite)
Solution time =   20.02 sec.  Iterations = 139327  Nodes = 2072 (1)
Deterministic time = 52040.74 ticks  (2600.09 ticks/sec)

CPLEX> CPLEX Error  1217: No solution exists.
No file written.
CPLEX>
